networks/zoo_64_793/zoo_64_793.txt
Number of groups: 31
Flow 10: {1 4} {4 24} {24 3} {3 13} {13 45} 
Flow 14: {5 6} {6 10} {10 18} {18 17} {17 49} 
Flow 29: {23 4} {4 36} 
Flow 33: {2 7} {7 8} {8 40} 
Flow 54: {24 4} {4 1} {1 33} 
Flow 61: {10 9} {9 41} 
Flow 63: {13 28} {28 29} {29 12} {12 44} 
Flow 83: {4 23} {23 31} {31 32} {32 64} 
Flow 127: {7 31} {31 20} {20 52} 
Flow 157: {31 23} {23 55} 
Flow 162: {28 60} 
Flow 199: {8 7} {7 5} {5 37} 
Flow 222: {6 5} {5 7} {7 2} {2 34} 
Flow 237: {9 10} {10 19} {19 51} 
Flow 262: {17 16} {16 48} 
Flow 280: {29 28} {28 13} {13 3} {3 35} 
Flow 299: {11 12} {12 31} {31 30} {30 62} 
Flow 316: {26 15} {15 16} {16 17} {17 18} {18 50} 
Flow 357: {14 31} {31 7} {7 39} 
Flow 387: {18 10} {10 42} 
Flow 454: {15 26} {26 22} {22 54} 
Flow 470: {10 6} {6 38} 
Flow 483: {16 15} {15 21} {21 53} 
Flow 504: {20 31} {31 63} 
Flow 523: {21 15} {15 25} {25 57} 
Flow 527: {27 12} {12 29} {29 61} 
Flow 551: {22 26} {26 27} {27 59} 
Flow 622: {25 15} {15 47} 
Flow 694: {3 24} {24 56} 
Flow 726: {30 31} {31 14} {14 46} 
Flow 788: {32 31} {31 12} {12 27} {27 26} {26 58} 
Time taken running everything: 10 seconds
