networks/zoo_64_793/zoo_64_793.sol
<?xml version = "1.0" encoding="UTF-8" standalone="yes"?>
<CPLEXSolution version="1.2">
 <header
   problemName="networks/zoo_64_793/zoo_64_793.lp"
   solutionName="incumbent"
   solutionIndex="-1"
   objectiveValue="31"
   solutionTypeValue="3"
   solutionTypeString="primal"
   solutionStatusValue="101"
   solutionStatusString="integer optimal solution"
   solutionMethodString="mip"
   primalFeasible="1"
   dualFeasible="1"
   MIPNodes="0"
   MIPIterations="3513"
   writeLevel="3"/>
 <quality
   epInt="1.0000000000000001e-05"
   epRHS="9.9999999999999995e-07"
   maxIntInfeas="0"
   maxPrimalInfeas="0"
   maxX="4"
   maxSlack="10"/>
 <variables>
  <variable name="Y(10,13)" index="579" value="1"/>
  <variable name="Y(13,16)" index="771" value="1"/>
  <variable name="Y(14,17)" index="835" value="1"/>
  <variable name="Y(16,19)" index="963" value="1"/>
  <variable name="Y(19,23)" index="1156" value="1"/>
  <variable name="Y(24,28)" index="1476" value="1"/>
  <variable name="Y(33,8)" index="2023" value="1"/>
  <variable name="Y(54,1)" index="3339" value="1"/>
  <variable name="Y(57,5)" index="3532" value="1"/>
  <variable name="Y(61,9)" index="3788" value="1"/>
  <variable name="Y(83,32)" index="5197" value="1"/>
  <variable name="Y(128,21)" index="8021" value="1"/>
  <variable name="Y(211,20)" index="13249" value="1"/>
  <variable name="Y(226,6)" index="14180" value="1"/>
  <variable name="Y(280,3)" index="17579" value="1"/>
  <variable name="Y(298,29)" index="18739" value="1"/>
  <variable name="Y(316,18)" index="19862" value="1"/>
  <variable name="Y(352,2)" index="22114" value="1"/>
  <variable name="Y(387,10)" index="24327" value="1"/>
  <variable name="Y(471,7)" index="29616" value="1"/>
  <variable name="Y(504,31)" index="31719" value="1"/>
  <variable name="Y(524,26)" index="32974" value="1"/>
  <variable name="Y(539,14)" index="33907" value="1"/>
  <variable name="Y(551,27)" index="34676" value="1"/>
  <variable name="Y(576,22)" index="36246" value="1"/>
  <variable name="Y(622,15)" index="39137" value="1"/>
  <variable name="Y(683,12)" index="42977" value="1"/>
  <variable name="Y(694,24)" index="43682" value="1"/>
  <variable name="Y(719,4)" index="45237" value="1"/>
  <variable name="Y(787,25)" index="49542" value="1"/>
  <variable name="Y(792,30)" index="49862" value="1"/>
  <variable name="X(1,4,10)" index="49968" value="1"/>
  <variable name="X(1,33,54)" index="50805" value="1"/>
  <variable name="X(2,7,33)" index="51577" value="1"/>
  <variable name="X(2,34,352)" index="52689" value="1"/>
  <variable name="X(3,13,10)" index="53140" value="1"/>
  <variable name="X(3,24,694)" index="54617" value="1"/>
  <variable name="X(3,35,280)" index="54996" value="1"/>
  <variable name="X(4,1,54)" index="55563" value="1"/>
  <variable name="X(4,23,19)" index="56321" value="1"/>
  <variable name="X(4,24,10)" index="57105" value="1"/>
  <variable name="X(4,36,719)" index="58607" value="1"/>
  <variable name="X(5,6,14)" index="58695" value="1"/>
  <variable name="X(5,7,471)" index="59945" value="1"/>
  <variable name="X(5,37,57)" index="60324" value="1"/>
  <variable name="X(6,5,471)" index="61531" value="1"/>
  <variable name="X(6,10,14)" index="61867" value="1"/>
  <variable name="X(6,38,226)" index="62872" value="1"/>
  <variable name="X(7,2,352)" index="63791" value="1"/>
  <variable name="X(7,5,57)" index="64289" value="1"/>
  <variable name="X(7,8,33)" index="65058" value="1"/>
  <variable name="X(7,31,211)" index="66029" value="1"/>
  <variable name="X(7,39,471)" index="67082" value="1"/>
  <variable name="X(8,7,211)" index="67615" value="1"/>
  <variable name="X(8,40,33)" index="68230" value="1"/>
  <variable name="X(9,10,226)" index="69216" value="1"/>
  <variable name="X(9,41,61)" index="69844" value="1"/>
  <variable name="X(10,6,226)" index="70802" value="1"/>
  <variable name="X(10,9,61)" index="71430" value="1"/>
  <variable name="X(10,18,14)" index="72176" value="1"/>
  <variable name="X(10,19,16)" index="72971" value="1"/>
  <variable name="X(10,42,387)" index="74135" value="1"/>
  <variable name="X(11,12,298)" index="74839" value="1"/>
  <variable name="X(12,27,576)" index="75910" value="1"/>
  <variable name="X(12,29,298)" index="76425" value="1"/>
  <variable name="X(12,31,539)" index="77459" value="1"/>
  <variable name="X(12,44,683)" index="78396" value="1"/>
  <variable name="X(13,3,280)" index="78786" value="1"/>
  <variable name="X(13,28,24)" index="79323" value="1"/>
  <variable name="X(13,45,10)" index="80102" value="1"/>
  <variable name="X(14,31,352)" index="81237" value="1"/>
  <variable name="X(14,46,539)" index="82217" value="1"/>
  <variable name="X(15,16,13)" index="82484" value="1"/>
  <variable name="X(15,21,128)" index="83392" value="1"/>
  <variable name="X(15,25,787)" index="84844" value="1"/>
  <variable name="X(15,26,524)" index="85374" value="1"/>
  <variable name="X(15,47,622)" index="86265" value="1"/>
  <variable name="X(16,15,128)" index="86564" value="1"/>
  <variable name="X(16,17,316)" index="87545" value="1"/>
  <variable name="X(16,48,13)" index="88035" value="1"/>
  <variable name="X(17,16,128)" index="88943" value="1"/>
  <variable name="X(17,18,316)" index="89924" value="1"/>
  <variable name="X(17,49,14)" index="90415" value="1"/>
  <variable name="X(18,10,387)" index="91581" value="1"/>
  <variable name="X(18,17,14)" index="92001" value="1"/>
  <variable name="X(18,50,316)" index="93096" value="1"/>
  <variable name="X(19,51,16)" index="93589" value="1"/>
  <variable name="X(20,31,504)" index="94870" value="1"/>
  <variable name="X(20,52,211)" index="95370" value="1"/>
  <variable name="X(21,15,524)" index="96476" value="1"/>
  <variable name="X(21,53,128)" index="96873" value="1"/>
  <variable name="X(22,26,551)" index="98089" value="1"/>
  <variable name="X(22,54,576)" index="98907" value="1"/>
  <variable name="X(23,4,719)" index="99843" value="1"/>
  <variable name="X(23,31,83)" index="100000" value="1"/>
  <variable name="X(23,55,19)" index="100729" value="1"/>
  <variable name="X(24,3,10)" index="101513" value="1"/>
  <variable name="X(24,4,54)" index="102350" value="1"/>
  <variable name="X(24,56,694)" index="103783" value="1"/>
  <variable name="X(25,15,622)" index="104504" value="1"/>
  <variable name="X(25,57,787)" index="105462" value="1"/>
  <variable name="X(26,15,787)" index="106255" value="1"/>
  <variable name="X(26,22,576)" index="106837" value="1"/>
  <variable name="X(26,27,551)" index="107605" value="1"/>
  <variable name="X(26,58,524)" index="108371" value="1"/>
  <variable name="X(27,12,539)" index="109179" value="1"/>
  <variable name="X(27,26,576)" index="110009" value="1"/>
  <variable name="X(27,59,551)" index="110777" value="1"/>
  <variable name="X(28,13,280)" index="111299" value="1"/>
  <variable name="X(28,29,683)" index="112495" value="1"/>
  <variable name="X(28,60,24)" index="112629" value="1"/>
  <variable name="X(29,12,683)" index="114081" value="1"/>
  <variable name="X(29,28,280)" index="114471" value="1"/>
  <variable name="X(29,61,298)" index="115282" value="1"/>
  <variable name="X(30,31,719)" index="116496" value="1"/>
  <variable name="X(30,62,792)" index="117362" value="1"/>
  <variable name="X(31,7,352)" index="117715" value="1"/>
  <variable name="X(31,12,576)" index="118732" value="1"/>
  <variable name="X(31,14,539)" index="119488" value="1"/>
  <variable name="X(31,20,211)" index="119953" value="1"/>
  <variable name="X(31,23,719)" index="121254" value="1"/>
  <variable name="X(31,30,792)" index="122120" value="1"/>
  <variable name="X(31,32,83)" index="122204" value="1"/>
  <variable name="X(31,63,504)" index="123418" value="1"/>
  <variable name="X(32,31,792)" index="124499" value="1"/>
  <variable name="X(32,64,83)" index="124583" value="1"/>
  <variable name="C(10,4)" index="125344" value="1"/>
  <variable name="C(10,24)" index="125345" value="2"/>
  <variable name="C(10,3)" index="125346" value="3"/>
  <variable name="C(10,13)" index="125347" value="4"/>
  <variable name="C(13,16)" index="125369" value="1"/>
  <variable name="C(14,6)" index="125376" value="1"/>
  <variable name="C(14,10)" index="125377" value="2"/>
  <variable name="C(14,18)" index="125378" value="3"/>
  <variable name="C(14,17)" index="125379" value="4"/>
  <variable name="C(16,19)" index="125397" value="1"/>
  <variable name="C(19,23)" index="125414" value="1"/>
  <variable name="C(24,28)" index="125445" value="1"/>
  <variable name="C(33,7)" index="125483" value="1"/>
  <variable name="C(33,8)" index="125484" value="2"/>
  <variable name="C(54,4)" index="125600" value="1"/>
  <variable name="C(54,1)" index="125601" value="2"/>
  <variable name="C(57,5)" index="125618" value="1"/>
  <variable name="C(61,9)" index="125649" value="1"/>
  <variable name="C(83,31)" index="125792" value="1"/>
  <variable name="C(83,32)" index="125793" value="2"/>
  <variable name="C(128,16)" index="126018" value="1"/>
  <variable name="C(128,15)" index="126019" value="2"/>
  <variable name="C(128,21)" index="126020" value="3"/>
  <variable name="C(211,7)" index="126423" value="1"/>
  <variable name="C(211,31)" index="126424" value="2"/>
  <variable name="C(211,20)" index="126425" value="3"/>
  <variable name="C(226,10)" index="126510" value="1"/>
  <variable name="C(226,6)" index="126511" value="2"/>
  <variable name="C(280,28)" index="126826" value="1"/>
  <variable name="C(280,13)" index="126827" value="2"/>
  <variable name="C(280,3)" index="126828" value="3"/>
  <variable name="C(298,12)" index="126917" value="1"/>
  <variable name="C(298,29)" index="126918" value="2"/>
  <variable name="C(316,17)" index="127000" value="1"/>
  <variable name="C(316,18)" index="127001" value="2"/>
  <variable name="C(352,31)" index="127178" value="1"/>
  <variable name="C(352,7)" index="127179" value="2"/>
  <variable name="C(352,2)" index="127180" value="3"/>
  <variable name="C(387,10)" index="127371" value="1"/>
  <variable name="C(471,5)" index="127846" value="1"/>
  <variable name="C(471,7)" index="127847" value="2"/>
  <variable name="C(504,31)" index="128027" value="1"/>
  <variable name="C(524,15)" index="128149" value="1"/>
  <variable name="C(524,26)" index="128150" value="2"/>
  <variable name="C(539,12)" index="128245" value="1"/>
  <variable name="C(539,31)" index="128246" value="2"/>
  <variable name="C(539,14)" index="128247" value="3"/>
  <variable name="C(551,26)" index="128305" value="1"/>
  <variable name="C(551,27)" index="128306" value="2"/>
  <variable name="C(576,12)" index="128429" value="1"/>
  <variable name="C(576,27)" index="128430" value="2"/>
  <variable name="C(576,26)" index="128431" value="3"/>
  <variable name="C(576,22)" index="128432" value="4"/>
  <variable name="C(622,15)" index="128700" value="1"/>
  <variable name="C(683,29)" index="129007" value="1"/>
  <variable name="C(683,12)" index="129008" value="2"/>
  <variable name="C(694,24)" index="129075" value="1"/>
  <variable name="C(719,31)" index="129187" value="1"/>
  <variable name="C(719,23)" index="129188" value="2"/>
  <variable name="C(719,4)" index="129189" value="3"/>
  <variable name="C(787,15)" index="129510" value="1"/>
  <variable name="C(787,25)" index="129511" value="2"/>
  <variable name="C(792,31)" index="129531" value="1"/>
  <variable name="C(792,30)" index="129532" value="2"/>
 </variables>
</CPLEXSolution>
